(declare-const __VERIFIER_assert__cond___16 Int)
(declare-const |__tmp_383_0':139:163:170:177:205| Int)
(declare-const havoc Int)
(declare-const |main____CPAchecker_TMP_0':141:162:169:176:204| Int)
(declare-const |main____CPAchecker_TMP_0___0':142:165:172:179:207| Int)
(declare-const |havoc:9:59:138:199:208| Int)
(declare-const |__VERIFIER_assert__cond___16':144:164:171:178:206| Int)
(declare-const |K:158:159:166:173:201| Int)
(declare-const |havoc:3:58:200| Int)
(declare-const main____CPAchecker_TMP_0___0 Int)
(declare-const __VERIFIER_assert__cond___15 Int)
(declare-const |__VERIFIER_assert__cond___15':143:161:168:175:203| Int)
(declare-const |main__t':140:160:167:174:202| Int)
(assert (and (<= (+ (- havoc) 1) 0) (not (= (+ (- havoc) 1) 0))
               (= |havoc:3:58:200| 0)
               (not (= (ite (<= (+ (- havoc) 1) 0) 1 0) 0))
               (or (not (<= (- |K:158:159:166:173:201|) 0))
                     (= (+ |main__t':140:160:167:174:202|
                             (- |K:158:159:166:173:201|)) 0))
               (or (not (and (<= (- |K:158:159:166:173:201|) 0)
                               (<= |K:158:159:166:173:201| 0)))
                     (= (+ (- __VERIFIER_assert__cond___15)
                             |__VERIFIER_assert__cond___15':143:161:168:175:203|) 0))
               (or (not (<= (+ (- |K:158:159:166:173:201|) 1) 0))
                     (= (+ |__VERIFIER_assert__cond___15':143:161:168:175:203|
                             -1) 0))
               (or (not (and (<= (- |K:158:159:166:173:201|) 0)
                               (<= |K:158:159:166:173:201| 0)))
                     (= (+ |main____CPAchecker_TMP_0':141:162:169:176:204|
                             (- |havoc:3:58:200|)) 0))
               (or (not (<= (+ (- |K:158:159:166:173:201|) 1) 0))
                     (= |main____CPAchecker_TMP_0':141:162:169:176:204| 0))
               (or (not (and (<= (- |K:158:159:166:173:201|) 0)
                               (<= |K:158:159:166:173:201| 0)))
                     (= (+ |__tmp_383_0':139:163:170:177:205|
                             (- |havoc:3:58:200|)) 0))
               (or (not (<= (+ (- |K:158:159:166:173:201|) 1) 0))
                     (= |__tmp_383_0':139:163:170:177:205| 0))
               (or (not (and (<= (- |K:158:159:166:173:201|) 0)
                               (<= |K:158:159:166:173:201| 0)))
                     (= (+ (- __VERIFIER_assert__cond___16)
                             |__VERIFIER_assert__cond___16':144:164:171:178:206|) 0))
               (or (not (<= (+ (- |K:158:159:166:173:201|) 1) 0))
                     (= (+ |__VERIFIER_assert__cond___16':144:164:171:178:206|
                             -1) 0))
               (or (not (and (<= (- |K:158:159:166:173:201|) 0)
                               (<= |K:158:159:166:173:201| 0)))
                     (= (+ (- main____CPAchecker_TMP_0___0)
                             |main____CPAchecker_TMP_0___0':142:165:172:179:207|) 0))
               (or (not (<= (+ (- |K:158:159:166:173:201|) 1) 0))
                     (= |main____CPAchecker_TMP_0___0':142:165:172:179:207| 0))
               (or (and (= |K:158:159:166:173:201| 0)
                          (= (+ __VERIFIER_assert__cond___16
                                  (- |__VERIFIER_assert__cond___16':144:164:171:178:206|)) 0)
                          (= (+ __VERIFIER_assert__cond___15
                                  (- |__VERIFIER_assert__cond___15':143:161:168:175:203|)) 0)
                          (= (+ main____CPAchecker_TMP_0___0
                                  (- |main____CPAchecker_TMP_0___0':142:165:172:179:207|)) 0)
                          (= (+ (- |main____CPAchecker_TMP_0':141:162:169:176:204|)
                                  |havoc:3:58:200|) 0)
                          (= (- |main__t':140:160:167:174:202|) 0)
                          (= (+ (- |__tmp_383_0':139:163:170:177:205|)
                                  |havoc:3:58:200|) 0))
                     (and (<= (+ (- |K:158:159:166:173:201|) 1) 0)
                            (= |havoc:3:58:200| 0) (= |havoc:3:58:200| 0)
                            (<= (+ (- havoc) 3) 0)
                            (= (+ |__VERIFIER_assert__cond___16':144:164:171:178:206|
                                    -1) 0)
                            (= (+ |__VERIFIER_assert__cond___15':143:161:168:175:203|
                                    -1) 0)
                            (= |main____CPAchecker_TMP_0':141:162:169:176:204| 0)
                            (= |main____CPAchecker_TMP_0___0':142:165:172:179:207| 0)
                            (= |__tmp_383_0':139:163:170:177:205| 0)
                            (<= (+ |main__t':140:160:167:174:202| (- havoc) 2) 0)
                            (<= (+ (- |main__t':140:160:167:174:202|) 1) 0)))
               (<= (- |K:158:159:166:173:201|) 0)
               (= |__tmp_383_0':139:163:170:177:205| 0)
               (= |main____CPAchecker_TMP_0':141:162:169:176:204| 0)
               (<= (- |main__t':140:160:167:174:202|) 0)
               (< (+ (- havoc) 1) 0) (= |__tmp_383_0':139:163:170:177:205| 0)
               (= |main____CPAchecker_TMP_0':141:162:169:176:204| 0)
               (not (= (+ |main__t':140:160:167:174:202| (- havoc) 2) 0))
               (= |havoc:9:59:138:199:208| 0)
               (= (ite (<= (+ (- |main__t':140:160:167:174:202|) -1) 0) 1 0) 0)))
(check-sat)
